letting n_nurses=25
letting n_days=7
letting n_shift_types=4
letting max_covers=10
letting t_covers=87
letting covers=[10,3,8,0,7,3,6,0,8,10,4,0,2,1,1,0,10,5,4,0,0,0,0,0,2,2,1,0]
letting prefes=[1,1,2,3,1,4,1,1,1,4,1,1,1,4,1,1,1,4,1,1,1,4,1,1,1,1,2,3,3,2,2,3,1,4,1,3,1,4,1,1,1,4,1,1,1,4,1,1,1,4,1,1,3,2,2,3,3,2,2,1,3,1,1,3,1,1,1,1,1,1,1,1,1,1,1,1,1,1,1,1,3,2,2,1,3,2,2,1,1,1,1,3,1,1,1,3,1,1,1,3,1,1,1,3,1,1,1,3,3,2,2,1,3,2,1,1,3,4,4,3,1,4,1,3,1,4,1,3,1,4,1,3,1,4,1,3,3,2,1,1,3,2,2,3,3,4,4,3,1,4,1,3,1,4,1,3,1,4,1,3,1,4,1,3,3,2,2,3,3,2,2,3,1,1,1,3,1,1,4,1,1,1,4,1,1,1,4,1,1,1,4,1,3,2,2,3,3,2,2,3,1,4,1,3,1,4,1,3,1,4,1,3,1,4,1,3,1,4,1,3,3,2,2,3,3,2,2,3,1,4,1,3,1,4,1,3,1,4,1,3,1,4,1,3,1,4,1,3,3,2,2,3,3,2,2,3,1,4,1,3,1,4,1,3,1,4,1,3,1,4,1,3,1,4,1,3,3,2,2,3,3,2,2,3,3,4,1,3,3,4,4,3,3,4,4,3,3,4,4,3,3,4,4,3,3,2,2,3,3,1,2,3,1,4,1,3,1,4,1,3,1,4,1,3,1,4,1,3,1,4,1,3,3,1,2,3,1,2,1,3,1,4,1,1,1,4,1,3,1,4,1,3,1,4,1,3,1,4,1,3,1,2,1,3,3,1,1,1,1,4,4,3,2,4,4,3,2,4,4,3,2,4,4,3,2,4,4,3,3,1,1,1,1,2,1,3,1,4,1,1,1,4,1,3,1,4,1,3,1,4,1,3,1,4,1,3,1,2,1,3,1,2,2,3,1,1,1,1,3,1,1,3,3,1,1,3,3,1,1,3,3,1,1,3,1,2,2,3,3,1,2,3,1,4,4,3,1,4,1,3,1,4,1,3,1,4,1,3,1,4,1,3,3,1,2,3,3,1,2,3,1,4,1,3,1,4,1,3,1,4,1,3,1,4,1,3,1,4,1,3,3,1,2,3,3,2,2,3,1,4,1,3,1,4,1,3,1,4,1,3,1,4,1,3,1,4,1,3,3,2,2,3,3,2,2,3,3,1,1,3,1,1,1,3,1,1,1,3,1,1,1,3,1,1,1,3,3,2,2,3,3,2,2,3,1,4,1,3,4,4,4,3,4,4,4,3,4,4,4,3,4,4,4,3,3,2,2,3,1,2,2,3,1,4,1,1,4,4,4,3,4,4,4,3,4,4,4,3,4,4,4,3,1,2,2,3,3,2,1,3,1,4,4,3,1,4,1,3,1,4,1,3,1,4,1,3,1,4,1,3,3,2,1,3,3,2,2,3,1,4,1,3,1,4,1,3,1,4,1,3,1,4,1,3,1,4,1,3,3,2,2,3,3,2,2,1,1,4,1,3,1,4,1,1,1,4,1,1,1,4,1,1,1,4,1,1,3,2,2,1]
letting ub =  289
